Version identifier: 22.1.0.0 | 2022-03-09 | 1a383f8ce
CPXPARAM_Threads                                 1
CPXPARAM_MIP_Strategy_VariableSelect             3
CPXPARAM_TimeLimit                               599.99997895399997
1 of 1 MIP starts provided solutions.
MIP start 'm1' defined initial solution with objective 23.0000.
Tried aggregator 1 time.
MIP Presolve eliminated 17 rows and 0 columns.
MIP Presolve modified 6 coefficients.
Reduced MIP has 5003 rows, 10000 columns, and 126084 nonzeros.
Reduced MIP has 10000 binaries, 0 generals, 0 SOSs, and 0 indicators.
Presolve time = 0.09 sec. (75.34 ticks)
Probing time = 0.01 sec. (4.83 ticks)
Tried aggregator 1 time.
Detecting symmetries...
MIP Presolve eliminated 2 rows and 0 columns.
Reduced MIP has 5001 rows, 10000 columns, and 126014 nonzeros.
Reduced MIP has 10000 binaries, 0 generals, 0 SOSs, and 0 indicators.
Presolve time = 0.10 sec. (72.44 ticks)
Probing time = 0.01 sec. (4.83 ticks)
Clique table members: 2990.
MIP emphasis: balance optimality and feasibility.
MIP search method: dynamic search.
Parallel mode: none, using 1 thread.
Root relaxation solution time = 6.75 sec. (6098.80 ticks)

        Nodes                                         Cuts/
   Node  Left     Objective  IInf  Best Integer    Best Bound    ItCnt     Gap

*     0+    0                           23.0000    10000.0000              --- 
      0     0      500.0000  2183       23.0000      500.0000    13112     --- 
*     0+    0                          500.0000      500.0000             0.00%
      0     0        cutoff            500.0000      500.0000    13112    0.00%
Elapsed time = 46.97 sec. (41950.18 ticks, tree = 0.01 MB, solutions = 2)

Root node processing (before b&c):
  Real time             =   46.98 sec. (41950.57 ticks)
Sequential b&c:
  Real time             =    0.00 sec. (0.00 ticks)
                          ------------
Total (root+branch&cut) =   46.98 sec. (41950.57 ticks)
Primal:	500
Dual:	500
Status:	Optimal
Time:	47.01
Sequence:
	17
	8
	16
	17
	8
	0
	10
	19
	0
	17
	19
	7
	18
	9
	12
	18
	9
	12
	1
	11
	14
	7
	11
	17
	16
	8
	17
	16
	0
	15
	16
	7
	15
	6
	2
	15
	0
	7
	15
	16
	0
	17
	16
	7
	15
	16
	7
	15
	0
	7
	15
	16
	7
	15
	6
	2
	15
	7
	0
	15
	6
	7
	15
	16
	7
	15
	0
	16
	15
	0
	7
	15
	7
	16
	15
	7
	0
	15
	7
	16
	10
	3
	4
	10
	3
	4
	10
	3
	6
	10
	11
	7
	17
	8
	16
	10
	4
	3
	17
	16
	8
	10
	6
	9
	10
	7
	6
	15
	0
	2
	15
	7
	6
	15
	2
	0
	14
	1
	11
	14
	1
	9
	12
	13
	8
	5
	13
	9
	12
	13
	9
	5
	18
	11
	5
	18
	9
	5
	18
	8
	14
	1
	9
	14
	1
	8
	14
	1
	9
	14
	1
	9
	14
	1
	8
	14
	1
	3
	14
	18
	4
	5
	18
	8
	14
	1
	9
	14
	7
	11
	10
	7
	9
	10
	2
	9
	10
	6
	7
	15
	16
	2
	17
	9
	7
	17
	19
	2
	10
	4
	3
	14
	1
	8
	12
	13
	8
	5
	18
	11
	5
	13
	8
	5
	13
	8
	5
	13
	11
	12
	13
	9
	12
	18
	19
	5
	1
	8
	14
	18
	4
	5
	18
	19
	2
	17
	3
	4
	10
	3
	4
	10
	3
	4
	10
	2
	9
	17
	16
	2
	15
	7
	0
	15
	16
	0
	15
	0
	2
	15
	6
	7
	15
	2
	7
	14
	9
	1
	14
	8
	1
	14
	9
	2
	5
	11
	16
	17
	4
	0
	10
	19
	2
	17
	3
	4
	10
	3
	4
	10
	3
	4
	10
	3
	4
	14
	3
	18
	14
	4
	18
	5
	11
	18
	5
	19
	1
	12
	8
	13
	5
	8
	18
	5
	8
	13
	12
	11
	13
	5
	11
	13
	12
	9
	13
	12
	9
	1
	14
	11
	1
	14
	9
	1
	14
	8
	18
	5
	9
	18
	5
	19
	2
	17
	19
	0
	10
	19
	0
	17
	19
	2
	17
	19
	7
	17
	16
	11
	5
	13
	11
	5
	18
	11
	5
	6
	2
	15
	6
	7
	15
	16
	7
	10
	3
	4
	10
	3
	4
	10
	16
	8
	17
	7
	19
	17
	2
	19
	17
	0
	19
	10
	0
	19
	17
	2
	8
	17
	16
	9
	17
	16
	9
	17
	16
	8
	10
	6
	0
	15
	2
	7
	15
	6
	0
	15
	2
	0
	19
	17
	0
	11
	12
	13
	9
	5
	18
	8
	14
	1
	9
	14
	1
	11
	5
	18
	19
	5
	18
	9
	5
	18
	11
	5
	1
	11
	5
	13
	8
	5
	13
	11
	12
	13
	9
	5
	18
	9
	12
	13
	11
	5
	18
	19
	5
	18
	4
	14
	3
	1
	12
	9
	13
	12
	11
	13
	5
	8
	18
	14
	3
	4
	14
	18
	3
	14
	1
	9
	14
	1
	11
	14
	1
	8
	5
	13
	9
	5
	13
	11
	12
	13
	9
	12
	16
	0
	15
	6
	2
	15
